10 -461999
15 -460793
20 -460671
25 -457278
30 -453259
35 -452485
40 -452040
45 -452040
50 -452040
55 -452040
60 -451313
65 -451313
70 -451313
75 -451313
80 -450733
85 -450733
90 -450733
95 -450733
100 -448938
105 -448938
110 -448938
115 -448938
120 -448938
125 -448938
130 -448938
135 -448938
140 -448938
145 -448938
150 -448863
155 -448754
160 -447606
165 -447358
170 -446729
175 -446729
180 -446729
185 -446208
190 -446208
195 -446208
200 -446208
205 -446208
210 -446208
215 -446208
220 -446208
225 -446208
230 -446208
235 -444058
240 -444058
245 -444058
250 -444058
255 -444058
260 -444058
265 -443654
